p cnf 23 7
a 1 2 0
e 3 4 0
a 5 0
e 6 0
a 7 0
e 8 9 0
a 10 0
e 11 12 0
a 13 14 0
e 15 0
a 16 17 0
e 18 0
a 19 20 0
e 21 22 0
a 23 0
-18 7 -19 21 -5 0
-4 6 -11 18 0
-22 7 19 0
18 -10 -4 -17 13 0
10 17 9 0
21 -2 0
5 17 15 0
